experiments/knapsack_bounded/knapsack_bounded_15_3.mps
NAME
ROWS
 N  OBJ
 L  c1
 L  c2
 L  c3
 L  c4
 L  c5
 L  c6
 L  c7
 L  c8
 L  c9
 L  c10
 L  c11
 L  c12
 L  c13
 L  c14
 L  c15
 L  c16
COLUMNS
    MARKER    'MARKER'                 'INTORG'
    x[1]      c1        927
    x[1]      c2        1
    x[1]      OBJ       -323
    x[2]      c1        13
    x[2]      c3        1
    x[2]      OBJ       -57
    x[3]      c1        671
    x[3]      c4        1
    x[3]      OBJ       -386
    x[4]      c1        91
    x[4]      c5        1
    x[4]      OBJ       -660
    x[5]      c1        332
    x[5]      c6        1
    x[5]      OBJ       -256
    x[6]      c1        830
    x[6]      c7        1
    x[6]      OBJ       -917
    x[7]      c1        943
    x[7]      c8        1
    x[7]      OBJ       -533
    x[8]      c1        912
    x[8]      c9        1
    x[8]      OBJ       -933
    x[9]      c1        493
    x[9]      c10       1
    x[9]      OBJ       -933
    x[10]     c1        990
    x[10]     c11       1
    x[10]     OBJ       -200
    x[11]     c1        268
    x[11]     c12       1
    x[11]     OBJ       -286
    x[12]     c1        25
    x[12]     c13       1
    x[12]     OBJ       -188
    x[13]     c1        889
    x[13]     c14       1
    x[13]     OBJ       -169
    x[14]     c1        52
    x[14]     c15       1
    x[14]     OBJ       -91
    x[15]     c1        423
    x[15]     c16       1
    x[15]     OBJ       -600
    MARKER    'MARKER'                 'INTEND'
RHS
    rhs       c1        3930
    rhs       c2        10
    rhs       c3        7
    rhs       c4        6
    rhs       c5        3
    rhs       c6        1
    rhs       c7        1
    rhs       c8        3
    rhs       c9        10
    rhs       c10       10
    rhs       c11       3
    rhs       c12       2
    rhs       c13       8
    rhs       c14       2
    rhs       c15       5
    rhs       c16       9
RANGES
BOUNDS
 LO bounds    x[1]      0
 PL bounds    x[1]
 LO bounds    x[2]      0
 PL bounds    x[2]
 LO bounds    x[3]      0
 PL bounds    x[3]
 LO bounds    x[4]      0
 PL bounds    x[4]
 LO bounds    x[5]      0
 PL bounds    x[5]
 LO bounds    x[6]      0
 PL bounds    x[6]
 LO bounds    x[7]      0
 PL bounds    x[7]
 LO bounds    x[8]      0
 PL bounds    x[8]
 LO bounds    x[9]      0
 PL bounds    x[9]
 LO bounds    x[10]     0
 PL bounds    x[10]
 LO bounds    x[11]     0
 PL bounds    x[11]
 LO bounds    x[12]     0
 PL bounds    x[12]
 LO bounds    x[13]     0
 PL bounds    x[13]
 LO bounds    x[14]     0
 PL bounds    x[14]
 LO bounds    x[15]     0
 PL bounds    x[15]
ENDATA
