experiments/knapsack_bounded/knapsack_bounded_15_3.mps.log
Algorithm statistics:
zero_reductions => 367637
max_basis_size => 2819
queued_pairs => 0
built_pairs => 372194
reduced_pairs => 371753
eliminated_by_truncation => 1312
removed_by_autoreduction => 0
eliminated_by_gcd => 3599777
time => 0.323862704
memory => 0.16221071779727936
4ti2 results
4ti2 time => 0.287307321
